--Link1--
%chk=molecule
#HF/6-31G* SCF=tight Test Pop=MK iop(6/33=2) iop(6/42=6) opt

remark line goes here

0   1
    H    2.0000000000        1.0000000000       -0.0000000000     
    C    2.0000000000        2.0900000000        0.0000000000     
    H    1.4860000000        2.4540000000        0.8900000000     
    H    1.4860000000        2.4540000000       -0.8900000000     
    C    3.4270000000        2.6410000000       -0.0000000000     
    O    4.3910000000        1.8770000000       -0.0000000000     
    N    3.5550000000        3.9700000000       -0.0000000000     
    H    2.7330000000        4.5560000000       -0.0000000000     
    C    4.8530000000        4.6140000000       -0.0000000000     
    H    5.5752000000        3.9790000000        0.5140000000     
    C    5.3449000000        4.8582000000       -1.4225000000     
    H    4.6373000000        5.4999000000       -1.9472000000     
    H    6.3206000000        5.3427000000       -1.3923000000     
    H    5.4293000000        3.9062000000       -1.9469000000     
    C    4.7975000000        5.9587000000        0.7097000000     
    O    5.0101000000        6.0359000000        1.9179000000     
    N    4.5105000000        7.0222000000       -0.0444000000     
    H    4.3434000000        6.9086000000       -1.0341000000     
    C    4.4283000000        8.3571000000        0.5131000000     
    H    4.6314000000        8.3180000000        1.5829000000     
    H    5.1627000000        9.0003000000        0.0276000000     
    H    3.4285000000        8.7596000000        0.3482000000     


